unsat
( c10
  c1000
  c1002
  c1004
  c1005
  c1008
  c1010
  c1011
  c1012
  c1013
  c1015
  c1018
  c102
  c1020
  c1021
  c1023
  c1024
  c1029
  c1033
  c1035
  c1037
  c1039
  c104
  c1040
  c1041
  c1042
  c1045
  c1047
  c1048
  c105
  c1050
  c1051
  c1053
  c1056
  c1057
  c1058
  c1059
  c1060
  c1061
  c1062
  c1070
  c1071
  c1072
  c1073
  c1076
  c1079
  c1080
  c1081
  c1082
  c1083
  c1086
  c1089
  c1091
  c1092
  c1093
  c1096
  c1099
  c11
  c1101
  c1102
  c1103
  c1104
  c1105
  c1108
  c1110
  c1112
  c1113
  c1114
  c1118
  c112
  c1120
  c1121
  c1123
  c1126
  c1129
  c1130
  c1131
  c1132
  c1133
  c1134
  c1135
  c114
  c1143
  c1144
  c1145
  c1146
  c1149
  c1153
  c1154
  c1156
  c1158
  c1159
  c1163
  c1164
  c1165
  c1168
  c1169
  c1172
  c1174
  c1175
  c1177
  c1178
  c1181
  c1183
  c1185
  c1186
  c1187
  c1188
  c1191
  c1193
  c1194
  c1196
  c1197
  c1199
  c120
  c1202
  c1203
  c1204
  c1205
  c1206
  c1207
  c1208
  c121
  c1216
  c1217
  c122
  c1224
  c1227
  c1228
  c1232
  c1236
  c124
  c1240
  c1244
  c1245
  c1246
  c1247
  c1248
  c125
  c1251
  c1253
  c1254
  c1261
  c1263
  c1264
  c1272
  c1273
  c1274
  c1275
  c1276
  c1277
  c1278
  c1279
  c1280
  c1281
  c1282
  c1283
  c1287
  c1290
  c1291
  c1295
  c1299
  c13
  c1301
  c1302
  c1304
  c1305
  c1307
  c1311
  c1313
  c1314
  c1316
  c1317
  c1320
  c1322
  c1323
  c1324
  c1326
  c1327
  c1330
  c1332
  c1333
  c1335
  c1336
  c134
  c1341
  c1344
  c1345
  c1347
  c1348
  c1349
  c135
  c1351
  c1352
  c1353
  c1354
  c1357
  c1359
  c1360
  c1363
  c1368
  c1369
  c137
  c1370
  c1371
  c1372
  c1373
  c1374
  c1382
  c1383
  c1385
  c1388
  c1391
  c1393
  c1395
  c1397
  c1398
  c1401
  c1403
  c1404
  c1407
  c1408
  c1411
  c1413
  c1414
  c1416
  c1417
  c1420
  c1422
  c1424
  c1425
  c1426
  c1430
  c1432
  c1433
  c1434
  c1435
  c1441
  c1442
  c1443
  c1444
  c1445
  c1446
  c1447
  c1455
  c1456
  c1458
  c1461
  c1464
  c1466
  c1468
  c147
  c1470
  c1471
  c1474
  c1476
  c1477
  c1480
  c1481
  c1484
  c1486
  c1487
  c1489
  c1490
  c1493
  c1495
  c1497
  c1498
  c1499
  c15
  c150
  c1503
  c1505
  c1506
  c1508
  c1509
  c1511
  c1514
  c1515
  c1516
  c1517
  c1518
  c1519
  c1520
  c1528
  c1529
  c1536
  c1539
  c1540
  c1544
  c1547
  c1548
  c155
  c1552
  c1555
  c1556
  c1557
  c1559
  c156
  c1560
  c1563
  c1565
  c1566
  c1573
  c1575
  c1576
  c1584
  c1585
  c1586
  c1587
  c1588
  c1589
  c1590
  c1591
  c1592
  c1593
  c1594
  c1595
  c1599
  c160
  c1602
  c1603
  c1607
  c1610
  c1611
  c1613
  c1614
  c1616
  c1617
  c1619
  c1623
  c1624
  c1626
  c1629
  c163
  c1632
  c1634
  c1635
  c1639
  c1642
  c1644
  c1645
  c1647
  c1648
  c165
  c1653
  c1656
  c1657
  c1659
  c166
  c1661
  c1664
  c1665
  c1666
  c1669
  c1671
  c1672
  c1680
  c1681
  c1682
  c1683
  c1684
  c1685
  c1686
  c1694
  c1695
  c1696
  c17
  c1704
  c1705
  c1707
  c1710
  c1713
  c1715
  c1716
  c172
  c1720
  c1723
  c1725
  c1726
  c1728
  c1729
  c1732
  c1734
  c1736
  c1737
  c1738
  c1742
  c1744
  c1745
  c1753
  c1754
  c1755
  c1756
  c1757
  c1758
  c1759
  c1767
  c1768
  c1769
  c177
  c1776
  c1778
  c178
  c1780
  c1783
  c1786
  c1788
  c1789
  c1793
  c1796
  c1798
  c1799
  c1801
  c1802
  c1805
  c1807
  c1810
  c1811
  c1815
  c1817
  c1818
  c1826
  c1827
  c1828
  c1829
  c1830
  c1831
  c1832
  c184
  c1840
  c1841
  c1848
  c185
  c1851
  c1852
  c1856
  c1859
  c1860
  c1864
  c1867
  c1868
  c1869
  c187
  c1872
  c1875
  c1878
  c1885
  c1887
  c1888
  c1896
  c1897
  c1898
  c1899
  c1900
  c1901
  c1902
  c1903
  c1904
  c1905
  c1906
  c1907
  c1911
  c1914
  c1915
  c1919
  c1922
  c1923
  c1925
  c1926
  c193
  c1935
  c1937
  c194
  c1945
  c1946
  c195
  c1951
  c1956
  c1957
  c1959
  c1960
  c1965
  c1968
  c1969
  c197
  c1971
  c1973
  c1974
  c1976
  c1977
  c1978
  c198
  c1981
  c1983
  c1984
  c1985
  c1986
  c1988
  c1992
  c1993
  c1994
  c1995
  c1996
  c1997
  c1998
  c2006
  c2007
  c2016
  c2017
  c2019
  c2022
  c2025
  c2027
  c2028
  c2031
  c2032
  c2035
  c2038
  c2040
  c2041
  c2044
  c2046
  c2047
  c2049
  c2050
  c2054
  c2056
  c2057
  c2058
  c2059
  c2060
  c2061
  c2065
  c2066
  c2067
  c2068
  c2069
  c207
  c2070
  c2071
  c2079
  c208
  c2080
  c2089
  c2090
  c2092
  c2095
  c2098
  c210
  c2100
  c2101
  c2104
  c2105
  c2110
  c2111
  c2113
  c2114
  c2117
  c2119
  c2120
  c2122
  c2123
  c2127
  c2129
  c2130
  c2131
  c2132
  c2134
  c2138
  c2139
  c2140
  c2141
  c2142
  c2143
  c2144
  c2152
  c2153
  c2160
  c2163
  c2164
  c2168
  c2171
  c2172
  c2176
  c2179
  c2180
  c2183
  c2187
  c2189
  c2190
  c2197
  c2199
  c220
  c2200
  c2208
  c2209
  c2210
  c2211
  c2212
  c2213
  c2214
  c2215
  c2216
  c2217
  c2218
  c2219
  c2223
  c2226
  c2227
  c223
  c2231
  c2234
  c2235
  c2237
  c2238
  c2247
  c2249
  c2257
  c2258
  c2268
  c2269
  c2271
  c2272
  c2277
  c2280
  c2281
  c2286
  c2288
  c2289
  c229
  c2290
  c2293
  c2295
  c2296
  c2297
  c2298
  c2300
  c2304
  c2305
  c2306
  c2307
  c2308
  c2309
  c2310
  c2318
  c2319
  c2328
  c2329
  c233
  c2338
  c2339
  c2347
  c2350
  c2352
  c2353
  c2359
  c236
  c2361
  c2362
  c2366
  c2368
  c2369
  c2370
  c2371
  c2373
  c2377
  c2378
  c2379
  c238
  c2380
  c2381
  c2382
  c2383
  c239
  c2391
  c2392
  c2401
  c2403
  c2411
  c2412
  c2420
  c2423
  c2425
  c2426
  c2432
  c2434
  c2435
  c2439
  c2441
  c2443
  c2444
  c2445
  c2446
  c2447
  c245
  c2450
  c2451
  c2452
  c2453
  c2454
  c2455
  c2456
  c2464
  c2465
  c2472
  c2475
  c2476
  c2480
  c2483
  c2484
  c2488
  c2491
  c2492
  c2499
  c25
  c250
  c2501
  c2502
  c2509
  c251
  c2511
  c2512
  c2520
  c2521
  c2522
  c2523
  c2524
  c2525
  c2526
  c2527
  c2528
  c2529
  c2530
  c2531
  c2535
  c2538
  c2539
  c2543
  c2546
  c2547
  c2550
  c2559
  c2569
  c257
  c2578
  c258
  c2580
  c2581
  c2583
  c2584
  c2589
  c2592
  c2593
  c2598
  c26
  c260
  c2605
  c2609
  c2610
  c2611
  c2612
  c2613
  c2616
  c2617
  c2618
  c2619
  c2620
  c2621
  c2622
  c2631
  c2640
  c2652
  c2659
  c266
  c2661
  c2662
  c2664
  c2665
  c267
  c2671
  c2678
  c268
  c2680
  c2682
  c2683
  c2685
  c2686
  c2689
  c2690
  c2691
  c2692
  c2693
  c2694
  c2695
  c27
  c270
  c2704
  c271
  c2713
  c2725
  c2729
  c2732
  c2734
  c2735
  c2737
  c2738
  c2744
  c2751
  c2755
  c2756
  c2758
  c2759
  c2762
  c2763
  c2764
  c2765
  c2766
  c2767
  c2768
  c2776
  c2777
  c2784
  c2787
  c2788
  c2792
  c2795
  c2796
  c28
  c280
  c2800
  c2803
  c2804
  c2805
  c2811
  c2813
  c2814
  c2821
  c2823
  c2824
  c2832
  c2833
  c2834
  c2835
  c2836
  c2837
  c2838
  c2839
  c2840
  c2841
  c2842
  c2843
  c2847
  c2850
  c2851
  c2855
  c2858
  c2859
  c2862
  c2871
  c288
  c2881
  c2890
  c2892
  c29
  c2901
  c2904
  c2905
  c2910
  c2917
  c292
  c2921
  c2922
  c2923
  c2924
  c2925
  c2928
  c2929
  c2930
  c2931
  c2932
  c2933
  c2934
  c2943
  c2952
  c296
  c2962
  c2971
  c2973
  c2983
  c2990
  c2994
  c2995
  c2996
  c2997
  c2998
  c30
  c300
  c3001
  c3002
  c3003
  c3004
  c3005
  c3006
  c3007
  c3016
  c3025
  c3035
  c304
  c3044
  c3046
  c3056
  c3063
  c3067
  c3068
  c3069
  c3070
  c3071
  c3074
  c3075
  c3076
  c3077
  c3078
  c3079
  c308
  c3080
  c3088
  c3089
  c3096
  c3099
  c31
  c3100
  c3104
  c3107
  c3108
  c3112
  c3115
  c3116
  c3123
  c3125
  c3126
  c3133
  c3135
  c3136
  c3144
  c3145
  c3146
  c3147
  c3148
  c3149
  c3150
  c3151
  c3152
  c3153
  c3154
  c3155
  c3159
  c3163
  c3167
  c3171
  c3173
  c3183
  c3193
  c32
  c3202
  c3213
  c3217
  c3222
  c3233
  c3234
  c3235
  c3236
  c3237
  c3240
  c3241
  c3242
  c3244
  c3245
  c3254
  c3264
  c3274
  c3283
  c3295
  c33
  c3306
  c3307
  c3308
  c3309
  c3310
  c3313
  c3314
  c3315
  c3317
  c3318
  c3327
  c3337
  c3347
  c3356
  c3368
  c3379
  c338
  c3380
  c3381
  c3382
  c3383
  c3386
  c3387
  c3388
  c339
  c3390
  c3391
  c34
  c340
  c3400
  c3401
  c3408
  c341
  c3412
  c3416
  c342
  c3420
  c3424
  c3428
  c3429
  c343
  c3430
  c3435
  c3445
  c3447
  c3448
  c3456
  c3457
  c3458
  c3459
  c3460
  c3461
  c3462
  c3463
  c3464
  c3465
  c3466
  c3467
  c347
  c3486
  c3496
  c35
  c3506
  c351
  c3516
  c3534
  c3543
  c355
  c3552
  c3567
  c3577
  c3587
  c359
  c3597
  c3607
  c3616
  c3625
  c363
  c3640
  c365
  c3650
  c366
  c3660
  c367
  c3670
  c368
  c3680
  c3689
  c3698
  c3712
  c3720
  c3724
  c3728
  c3732
  c3736
  c3740
  c3745
  c3747
  c3749
  c375
  c3750
  c3769
  c3770
  c3771
  c3772
  c3773
  c3774
  c3775
  c3776
  c3777
  c3778
  c3779
  c378
  c3781
  c3785
  c3789
  c3792
  c3796
  c3800
  c3805
  c3809
  c381
  c3813
  c3817
  c3821
  c3825
  c3828
  c3829
  c3832
  c3833
  c3836
  c3837
  c3840
  c3841
  c3844
  c3845
  c3848
  c3849
  c385
  c3852
  c3853
  c3854
  c3856
  c3857
  c3858
  c386
  c3860
  c3861
  c3862
  c3864
  c3865
  c3866
  c3868
  c3869
  c387
  c3870
  c3872
  c3873
  c3874
  c3876
  c3877
  c3878
  c3880
  c3881
  c3882
  c3884
  c3885
  c3886
  c3888
  c3889
  c3890
  c3892
  c3893
  c3894
  c3896
  c3897
  c3898
  c39
  c3900
  c3901
  c3902
  c3904
  c3905
  c3906
  c3908
  c3909
  c391
  c3910
  c3912
  c3913
  c3914
  c3916
  c3917
  c3918
  c3920
  c3921
  c3922
  c3924
  c3925
  c3926
  c3927
  c3929
  c3930
  c3931
  c3933
  c3934
  c3935
  c3936
  c3937
  c3939
  c394
  c3942
  c3943
  c3945
  c397
  c399
  c4
  c405
  c409
  c411
  c414
  c416
  c417
  c424
  c426
  c427
  c429
  c43
  c432
  c433
  c434
  c436
  c437
  c446
  c449
  c458
  c459
  c462
  c467
  c468
  c47
  c472
  c475
  c478
  c484
  c485
  c489
  c490
  c496
  c497
  c499
  c502
  c505
  c506
  c507
  c508
  c509
  c51
  c510
  c511
  c519
  c522
  c53
  c532
  c535
  c539
  c54
  c540
  c541
  c545
  c548
  c551
  c557
  c56
  c562
  c563
  c569
  c570
  c572
  c575
  c578
  c579
  c580
  c581
  c582
  c583
  c584
  c592
  c593
  c6
  c600
  c604
  c608
  c612
  c616
  c620
  c622
  c624
  c627
  c63
  c640
  c648
  c649
  c650
  c651
  c652
  c653
  c654
  c655
  c657
  c659
  c66
  c663
  c667
  c671
  c675
  c677
  c679
  c680
  c681
  c682
  c686
  c687
  c688
  c69
  c690
  c693
  c696
  c697
  c698
  c699
  c703
  c706
  c707
  c708
  c709
  c711
  c712
  c717
  c721
  c723
  c725
  c726
  c727
  c728
  c729
  c735
  c736
  c738
  c739
  c741
  c744
  c745
  c746
  c747
  c748
  c749
  c75
  c750
  c758
  c759
  c760
  c761
  c764
  c769
  c771
  c774
  c777
  c779
  c780
  c784
  c787
  c789
  c79
  c790
  c791
  c792
  c793
  c796
  c798
  c8
  c801
  c802
  c806
  c808
  c809
  c811
  c814
  c817
  c818
  c819
  c82
  c820
  c821
  c822
  c823
  c831
  c832
  c833
  c834
  c837
  c84
  c841
  c842
  c844
  c847
  c85
  c851
  c852
  c853
  c857
  c860
  c862
  c863
  c865
  c866
  c869
  c871
  c874
  c875
  c876
  c881
  c882
  c884
  c887
  c890
  c891
  c892
  c893
  c894
  c895
  c896
  c904
  c905
  c912
  c916
  c919
  c920
  c924
  c928
  c93
  c932
  c933
  c935
  c936
  c937
  c939
  c941
  c942
  c949
  c951
  c952
  c960
  c961
  c962
  c963
  c964
  c965
  c966
  c967
  c968
  c969
  c97
  c970
  c971
  c975
  c978
  c979
  c983
  c987
  c989
  c99
  c991
  c992
  c993
  c995
  c999 )
